c .nnodes 80
c .nvars 151
c .nsuppvars 100
c .ids  0 1 2 3 4 5 6 7 8 9 10 11 12 13 14 15 16 17 18 19 20 21 22 23 24 25 26 27 28 29 30 31 32 33 34 35 36 37 38 39 40 41 42 43 44 45 46 47 48 49 50 51 52 53 54 55 56 57 58 59 60 61 62 63 64 65 66 67 68 69 70 71 72 73 74 75 76 77 78 79 80 81 82 83 84 85 86 87 88 89 90 91 92 93 94 95 96 97 98 99 
c .cnfids  139 141 142 143 145 149 150 151 155 174 138 140 204 214 144 159 137 146 152 160 230 157 182 185 226 227 166 184 210 229 147 148 156 158 163 196 197 212 215 153 154 164 177 213 132 133 162 170 181 202 203 211 167 171 136 175 135 178 231 216 207 224 168 134 179 180 198 222 165 201 221 225 228 206 183 217 161 205 176 218 169 173 199 172 208 209 220 200 194 223 193 195 219 186 190 192 191 188 187 189 
c .nroots 1
c .rootids 2
p cnf 283 679
3 230 -4 -101 -121 0
3 -230 4 -101 -121 0
-3 121 0
-3 230 4 0
-3 101 0
-3 -230 -4 0
4 8 99 0
4 223 5 99 0
-4 -99 0
-4 -5 -8 0
-4 -223 -8 0
5 -169 -6 0
5 169 217 6 0
5 -169 -218 0
5 169 218 6 0
-5 169 -6 0
-5 -169 218 6 0
-5 169 -217 -218 0
6 220 -7 0
-6 -220 0
-6 7 0
7 186 -187 -188 0
7 186 187 189 0
7 186 187 188 0
-7 -186 0
-7 -187 188 0
-7 187 -188 -189 0
8 -9 -67 -82 -85 0
-8 85 0
-8 9 0
-8 82 0
-8 67 0
9 6 -10 -28 0
9 -6 -17 -28 0
-9 28 0
-9 -6 17 0
-9 6 10 0
10 176 -11 -15 0
10 -11 14 -15 0
-10 15 0
-10 11 0
-10 -176 -14 0
11 157 206 -12 -13 0
11 -157 -206 -12 -13 0
-11 13 0
-11 -157 206 0
-11 12 0
-11 157 -206 0
12 -178 -227 0
12 178 227 0
-12 178 -227 0
-12 -178 227 0
13 -133 136 -182 185 0
13 133 -136 182 -185 0
13 133 136 182 185 0
13 -133 -136 -182 -185 0
-13 -133 182 0
-13 133 -182 0
-13 136 -185 0
-13 -136 185 0
14 199 225 0
14 -200 225 0
14 183 225 0
-14 -225 0
-14 -183 -199 200 0
15 134 183 -16 0
15 -134 -183 -16 0
15 183 201 -16 0
-15 16 0
-15 134 -183 0
-15 -134 183 -201 0
16 -156 -205 0
16 156 205 0
-16 156 -205 0
-16 -156 205 0
17 133 18 19 -25 0
17 -133 -18 19 -25 0
-17 -19 0
-17 133 -18 0
-17 25 0
-17 -133 18 0
18 -187 -188 0
18 -188 189 0
-18 188 0
-18 187 -189 0
19 -178 195 0
19 -195 -24 0
19 178 -195 0
19 195 -20 0
-19 -178 -195 24 0
-19 178 195 20 0
20 161 -209 -21 0
20 -161 209 -21 0
-20 21 0
-20 161 209 0
-20 -161 -209 0
21 -22 -23 0
-21 22 0
-21 23 0
22 186 219 0
-22 -186 0
-22 -219 0
23 190 191 -192 0
-23 192 0
-23 -191 0
-23 -190 0
24 161 -208 219 0
24 -161 208 219 0
-24 -219 0
-24 161 208 0
-24 -161 -208 0
25 180 198 26 -27 0
25 -180 -198 26 -27 0
-25 -26 0
-25 180 -198 0
-25 27 0
-25 -180 198 0
26 -134 -201 0
-26 134 0
-26 201 0
27 176 179 219 0
-27 -176 0
-27 -219 0
-27 -179 0
28 167 29 -32 -65 0
28 -167 -29 -32 -65 0
-28 65 0
-28 -167 29 0
-28 32 0
-28 167 -29 0
29 -216 30 0
29 -198 -30 0
-29 216 30 0
-29 198 -30 0
30 -193 -22 0
30 -22 -23 -31 0
-30 22 0
-30 193 23 0
-30 193 31 0
31 194 -195 0
31 -194 195 0
-31 -194 -195 0
-31 194 195 0
32 33 42 -47 -58 0
-32 -33 0
-32 58 0
-32 47 0
-32 -42 0
33 223 34 41 0
33 186 223 34 0
-33 -34 0
-33 -223 0
-33 -186 -41 0
34 186 35 40 0
34 186 21 35 0
-34 -186 0
-34 -35 0
-34 -21 -40 0
35 -219 -36 38 0
35 36 -37 38 0
-35 -38 0
-35 219 -36 0
-35 36 37 0
36 -187 188 -189 0
-36 187 0
-36 -188 0
-36 189 0
37 173 -208 219 0
37 -173 208 219 0
-37 -219 0
-37 173 208 0
-37 -173 -208 0
38 -195 -39 0
-38 195 0
-38 39 0
39 187 188 -189 0
-39 189 0
-39 -188 0
-39 -187 0
40 173 -195 -209 -39 0
40 -173 -195 209 -39 0
-40 39 0
-40 -173 -209 0
-40 195 0
-40 173 209 0
41 -173 -222 0
41 173 222 0
-41 173 -222 0
-41 -173 222 0
42 -193 -46 0
42 -43 -46 0
42 -44 -46 0
-42 46 0
-42 193 43 44 0
43 172 -194 -209 -23 0
43 -172 -194 209 -23 0
-43 23 0
-43 -172 -209 0
-43 194 0
-43 172 209 0
44 172 -208 45 0
44 -172 208 45 0
-44 -45 0
-44 172 208 0
-44 -172 -208 0
45 -190 191 -192 0
45 191 -192 -194 0
-45 192 0
-45 -191 0
-45 190 194 0
46 193 -22 0
46 -172 207 -22 0
46 172 -207 -22 0
-46 22 0
-46 172 -193 207 0
-46 -172 -193 -207 0
47 223 -48 -55 0
47 -48 -54 -55 0
-47 55 0
-47 48 0
-47 -223 54 0
48 175 -49 53 0
48 -175 -49 -53 0
-48 49 0
-48 -175 53 0
-48 175 -53 0
49 -22 51 -52 0
49 -50 51 -52 0
-49 52 0
-49 -51 0
-49 22 50 0
50 -172 -221 0
50 172 221 0
-50 172 -221 0
-50 -172 221 0
51 -186 187 -188 -189 0
-51 189 0
-51 186 0
-51 188 0
-51 -187 0
52 165 -230 -231 0
52 -223 -230 -231 0
-52 231 0
-52 230 0
-52 -165 223 0
53 -217 -223 0
53 223 -224 0
-53 217 -223 0
-53 223 224 0
54 218 -219 0
54 -219 -228 0
54 217 -219 0
-54 219 0
-54 -217 -218 228 0
55 164 213 -56 -57 0
55 -164 -213 -56 -57 0
-55 57 0
-55 -164 213 0
-55 56 0
-55 164 -213 0
56 -132 -211 0
56 162 181 0
56 181 -211 0
56 -132 162 0
-56 -162 211 0
-56 132 -181 0
57 -162 -181 0
57 132 211 0
57 132 -162 0
57 -181 211 0
-57 -132 181 0
-57 162 -211 0
58 22 -60 -63 0
58 -59 -60 -63 0
-58 63 0
-58 60 0
-58 -22 59 0
59 -190 191 193 0
59 190 -191 -192 193 0
-59 -191 192 0
-59 190 191 0
-59 -193 0
-59 -190 -191 0
60 158 207 61 -62 0
60 -158 -207 61 -62 0
-60 -61 0
-60 158 -207 0
-60 62 0
-60 -158 207 0
61 163 -212 0
61 -163 212 0
-61 -163 -212 0
-61 163 212 0
62 -147 148 -196 197 0
62 147 -148 196 -197 0
62 147 148 196 197 0
62 -147 -148 -196 -197 0
-62 -147 196 0
-62 147 -196 0
-62 148 -197 0
-62 -148 197 0
63 -219 64 0
63 221 222 64 0
63 -221 -222 64 0
-63 -64 0
-63 219 221 -222 0
-63 219 -221 222 0
64 165 -223 0
64 -168 -223 0
64 -169 -223 0
-64 223 0
-64 -165 168 169 0
65 6 -66 0
65 -177 -39 -6 0
65 177 39 -6 0
-65 6 66 0
-65 177 -39 -6 0
-65 -177 39 -6 0
66 -177 -226 0
66 177 226 0
-66 177 -226 0
-66 -177 226 0
67 -6 68 81 0
67 6 -70 81 0
-67 -81 0
-67 6 70 0
-67 -6 -68 0
68 136 -69 0
68 -136 69 0
-68 -136 -69 0
-68 136 69 0
69 187 -188 189 0
-69 -187 0
-69 188 0
-69 -189 0
70 -72 -74 0
70 -154 71 -74 0
-70 74 0
-70 -71 72 0
-70 154 72 0
71 199 203 0
71 200 203 -206 0
71 -200 203 206 0
-71 -203 0
-71 -199 -200 -206 0
-71 -199 200 206 0
72 199 -73 0
72 -200 -73 0
72 -206 -73 0
-72 73 0
-72 -199 200 206 0
73 154 203 0
-73 -154 0
-73 -203 0
74 -176 75 -78 0
74 -14 75 -78 0
-74 78 0
-74 -75 0
-74 176 14 0
75 153 -77 0
75 -153 -76 0
75 153 -202 0
-75 -153 76 0
-75 153 202 77 0
76 199 202 0
76 200 202 -205 0
76 -200 202 205 0
-76 -202 0
-76 -199 -200 -205 0
-76 -199 200 205 0
77 -199 200 205 0
-77 199 0
-77 -205 0
-77 -200 0
78 161 210 -79 80 0
78 -161 -210 -79 80 0
-78 -80 0
-78 -161 210 0
-78 79 0
-78 161 -210 0
79 -179 180 -228 229 0
79 179 -180 228 -229 0
79 179 180 228 229 0
79 -179 -180 -228 -229 0
-79 -179 228 0
-79 179 -228 0
-79 180 -229 0
-79 -180 229 0
80 135 -184 0
80 -135 184 0
-80 -135 -184 0
-80 135 184 0
81 -171 -223 0
81 -171 220 7 0
81 171 -220 223 7 0
-81 171 -223 0
-81 -171 -220 223 0
-81 223 -7 0
-81 171 220 0
82 -166 170 83 -84 0
82 -166 -170 -83 -84 0
82 166 170 83 84 0
82 166 -170 -83 84 0
-82 166 -84 0
-82 -166 84 0
-82 -170 83 0
-82 170 -83 0
83 -219 223 0
83 223 -30 0
-83 -223 0
-83 219 30 0
84 -220 -30 0
84 -215 30 0
-84 215 30 0
-84 220 -30 0
85 6 86 0
85 135 193 86 0
85 -135 -193 86 0
-85 -86 0
-85 135 -193 -6 0
-85 -135 193 -6 0
86 219 92 0
86 219 87 0
-86 -219 0
-86 -87 -92 0
87 88 89 90 -91 0
87 88 -89 -90 -91 0
87 -88 -89 -90 91 0
87 -88 89 90 91 0
-87 -88 -91 0
-87 88 91 0
-87 -89 90 0
-87 89 -90 0
88 189 0
88 -187 -188 0
-88 188 -189 0
-88 187 -189 0
89 187 188 189 0
-89 -187 0
-89 -189 0
-89 -188 0
90 190 191 192 0
-90 -190 0
-90 -192 0
-90 -191 0
91 191 -192 0
91 190 -192 0
-91 192 0
-91 -190 -191 0
92 93 94 -95 -97 0
92 -93 -94 -95 -97 0
92 93 94 95 97 0
92 -93 -94 95 97 0
-92 93 -94 0
-92 -93 94 0
-92 95 -97 0
-92 -95 97 0
93 188 189 0
93 187 -188 -189 0
-93 -188 189 0
-93 -187 -189 0
-93 188 -189 0
94 191 192 0
94 190 -191 -192 0
-94 -191 192 0
-94 -190 -192 0
-94 191 -192 0
95 -190 -96 0
95 190 96 0
-95 190 -96 0
-95 -190 96 0
96 191 192 0
-96 -191 0
-96 -192 0
97 -187 -98 0
97 187 98 0
-97 187 -98 0
-97 -187 98 0
98 188 189 0
-98 -188 0
-98 -189 0
99 170 171 231 -100 0
-99 100 0
-99 -231 0
-99 -170 0
-99 -171 0
100 168 169 172 173 0
100 168 169 -172 -173 0
-100 -169 0
-100 172 -173 0
-100 -168 0
-100 -172 173 0
101 -60 -102 -103 -104 0
-101 104 0
-101 60 0
-101 103 0
-101 102 0
102 -139 167 -188 0
102 139 167 188 0
102 139 188 -216 0
102 -139 -188 -216 0
-102 -139 188 0
-102 139 -188 0
-102 -167 216 0
103 -166 168 -215 217 0
103 166 -168 215 -217 0
103 166 168 215 217 0
103 -166 -168 -215 -217 0
-103 -166 215 0
-103 166 -215 0
-103 168 -217 0
-103 -168 217 0
104 -105 -114 -115 -116 0
-104 116 0
-104 105 0
-104 115 0
-104 114 0
105 -106 -109 -110 -111 0
-105 111 0
-105 106 0
-105 110 0
-105 109 0
106 144 193 107 108 0
106 -144 -193 107 108 0
-106 -107 0
-106 -144 193 0
-106 -108 0
-106 144 -193 0
107 159 -208 0
-107 -159 0
-107 208 0
108 137 -186 0
-108 -137 0
-108 186 0
109 -152 195 0
109 -146 201 0
109 -146 -152 0
109 195 201 0
-109 152 -201 0
-109 146 -195 0
110 159 160 0
110 -208 -209 0
110 159 -209 0
110 160 -208 0
-110 -159 208 0
-110 -160 209 0
111 143 192 -112 -113 0
111 -143 -192 -112 -113 0
-111 113 0
-111 -143 192 0
-111 112 0
-111 143 -192 0
112 -167 -186 0
112 137 216 0
112 137 -167 0
112 -186 216 0
-112 -137 186 0
-112 167 -216 0
113 -142 155 -191 204 0
113 142 -155 191 -204 0
113 142 155 191 204 0
113 -142 -155 -191 -204 0
-113 -142 191 0
-113 142 -191 0
-113 155 -204 0
-113 -155 204 0
114 -138 174 -187 223 0
114 138 -174 187 -223 0
114 138 174 187 223 0
114 -138 -174 -187 -223 0
-114 -138 187 0
-114 138 -187 0
-114 174 -223 0
-114 -174 223 0
115 -140 149 -189 198 0
115 140 -149 189 -198 0
115 140 149 189 198 0
115 -140 -149 -189 -198 0
-115 -140 189 0
-115 140 -189 0
-115 149 -198 0
-115 -149 198 0
116 165 214 -117 -120 0
116 -165 -214 -117 -120 0
-116 120 0
-116 -165 214 0
-116 117 0
-116 165 -214 0
117 209 118 -119 0
117 -160 118 -119 0
-117 119 0
-117 -118 0
-117 160 -209 0
118 176 -225 0
-118 -176 0
-118 225 0
119 146 152 0
119 -195 -201 0
119 146 -201 0
119 152 -195 0
-119 -146 195 0
-119 -152 201 0
120 -169 -225 0
120 176 218 0
120 218 -225 0
120 -169 176 0
-120 -176 225 0
-120 169 -218 0
121 -11 -55 -78 -122 0
-121 122 0
-121 11 0
-121 78 0
-121 55 0
122 -123 -128 -130 -131 0
-122 131 0
-122 123 0
-122 130 0
-122 128 0
123 -16 -66 -124 -125 0
-123 125 0
-123 16 0
-123 124 0
-123 66 0
124 -151 171 -200 220 0
124 151 -171 200 -220 0
124 151 171 200 220 0
124 -151 -171 -200 -220 0
-124 -151 200 0
-124 151 -200 0
-124 171 -220 0
-124 -171 220 0
125 172 221 -41 -126 0
125 -172 -221 -41 -126 0
-125 126 0
-125 -172 221 0
-125 41 0
-125 172 -221 0
126 134 183 -231 127 0
126 -134 -183 -231 127 0
-126 -127 0
-126 -134 183 0
-126 231 0
-126 134 -183 0
127 -169 218 0
-127 169 0
-127 -218 0
128 -153 -202 -129 0
128 153 202 -129 0
-128 129 0
-128 -153 202 0
-128 153 -202 0
129 -141 170 -190 219 0
129 141 -170 190 -219 0
129 141 170 190 219 0
129 -141 -170 -190 -219 0
-129 -141 190 0
-129 141 -190 0
-129 170 -219 0
-129 -170 219 0
130 -145 150 -194 199 0
130 145 -150 194 -199 0
130 145 150 194 199 0
130 -145 -150 -194 -199 0
-130 -145 194 0
-130 145 -194 0
-130 150 -199 0
-130 -150 199 0
131 -154 175 -203 224 0
131 154 -175 203 -224 0
131 154 175 203 224 0
131 -154 -175 -203 -224 0
-131 -154 203 0
-131 154 -203 0
-131 175 -224 0
-131 -175 224 0
283 0
2 3 0
-2 -3 0
2 0

